(declare-const a sl.list.loc)
(declare-const b sl.list.loc)
(declare-const c sl.list.loc)
(declare-const d sl.list.loc)
(declare-const e sl.list.loc)
(declare-const f sl.list.loc)
(declare-const g sl.list.loc)
(declare-const h sl.list.loc)
(declare-const i Int)
(declare-const j Int)
(declare-const k Int)
(declare-const l Int)
(declare-const m Int)
(declare-const n Int)
(declare-const o Int)
(declare-const p Int)
(assert (sl.sepcon
         (sl.sepcon (sl.sepcon (sl.list.dpointsto a b i)
                               (sl.list.dpointsto b c j))
                    (sl.sepcon (sl.list.dpointsto c d k)
                               (sl.list.dpointsto d e l)))
         (sl.sepcon (sl.sepcon (sl.list.dpointsto e f m)
                               (sl.list.dpointsto f g n))
                    (sl.sepcon (sl.list.dpointsto g h o)
                               (sl.list.dpointsto h sl.list.null p)))))
(assert (sl.list a))
